LengthSchedulingHorizon=7827;
nAttributes=2;
SetupCosts=[[0, 0], [10, 17], [23, 13]];
SetupTimes=[[0, 0], [2, 17], [21, 0]];
nMachines=2;
MinCap=[0, 0];
MaxCap=[12, 27];

initState=[1, 1];
nShifts=3;
ShiftStartTimes = [[4393, 5720, 6785], [0, 0, 2244]];
ShiftEndTimes = [[5001, 6681, 7367], [0, 0, 5930]];
nJobs=25;
EligibleMachines = [{1, 2}, {1}, {1, 2}, {1, 2}, {1, 2}, {1}, {1}, {1}, {1, 2}, {1}, {1}, {1}, {1}, {2}, {1, 2}, {1}, {1, 2}, {2}, {1, 2}, {1, 2}, {1, 2}, {1, 2}, {2}, {1}, {1}];
EarliestStart=[476, 402, 239, 25, 138, 137, 589, 611, 23, 233, 600, 256, 312, 171, 563, 309, 95, 74, 430, 396, 17, 45, 277, 155, 27];
LatestEnd=[634, 412, 355, 365, 167, 364, 737, 890, 45, 341, 634, 592, 571, 252, 651, 471, 239, 282, 843, 515, 99, 183, 351, 270, 125];
MinTime=[38, 5, 74, 100, 8, 76, 37, 84, 21, 42, 9, 99, 71, 70, 23, 43, 30, 80, 97, 76, 55, 45, 27, 39, 30];
MaxTime=[95, 76, 91, 100, 36, 87, 67, 100, 36, 76, 23, 99, 82, 88, 85, 58, 47, 84, 97, 80, 82, 84, 82, 70, 70];
JobSize=[5, 1, 1, 2, 1, 4, 1, 5, 5, 3, 2, 4, 5, 2, 1, 1, 1, 3, 4, 5, 3, 3, 4, 4, 3];
Attribute=[1, 1, 1, 2, 1, 1, 2, 1, 1, 1, 2, 1, 1, 2, 2, 1, 1, 2, 2, 1, 2, 1, 1, 1, 1];

upper_bound_integer_objective=65929500;
mult_factor_total_runtime=1932;
mult_factor_finished_toolate=2511600;
mult_factor_total_setuptimes=0;
mult_factor_total_setupcosts=1092;
running_time_bound=1279;
min_duration=5;
max_duration=100;
max_setup_time=21;
max_setup_cost=23;
